3005          0             5    3  
3004          0             4    3  
100002        0             2    100
100004        0             4    100
5             0             5    0  
100005        0             5    100
100003        0             3    100
100001        0             1    100
1001          0             1    1  
100100        0             100  100
3003          0             3    3  
100           0             100  0  
2005          0             5    2  
4004          0             4    4  
1003          0             3    1  
5005          0             5    5  
1005          0             5    1  
3             0             3    0  
2002          0             2    2  
2             0             2    0  
4             0             4    0  
2004          0             4    2  
4005          0             5    4  
2003          0             3    2  
1002          0             2    1  
0             0             0    0  
1004          0             4    1  
1             0             1    0  
